196 119 188 136 115 46 8 98 18 60 150 47 72 56 97 160 194 161 21 58 129 68 83 11 23 105 
142 59 198 138 184 116 57 30 32 84 191 50 141 81 103 186 80 195 101 7 66 135 1 111 157 176 
167 63 173 132 29 93 77 45 128 16 133 53 179 127 62 92 55 172 163 170 165 95 125 51 34 114 
39 40 178 166 164 65 13 189 113 192 169 185 89 19 146 9 124 85 44 112 109 149 152 52 14 
64 6 183 99 76 3 15 177 134 61 145 25 96 181 31 121 49 130 75 154 4 36 
104 174 171 102 140 26 182 199 22 27 155 139 151 180 100 82 147 91 197 106 159 
67 153 86 42 2 118 70 131 48 90 12 73 69 24 87 74 54 158 168 79 
28 200 148 110 162 94 35 126 143 78 175 108 20 5 71 117 190 120 17 88 
10 144 107 41 137 38 33 187 43 193 123 122 37 156 

